N = 4;
TimeWindows = [| 0, 3000
| 2000, 10000
| 2000, 10000
| 2000, 10000
|];
TravelTimes = [| 43, 31, 8, 59, 90
| 88, 84, 68, 47, 15
| 55, 64, 68, 72, 30
| 67, 72, 86, 81, 45
| 67, 72, 86, 81, 45
|];
ServiceTimes = [0, 10, 40, 10]
